NAME : A-n20-k7
CAPACITY : 806
NODE_COORD_SECTION
1   216   146
2   193   29
3   356   301
4   148   46
5   282   280
6   280   99
7   62   393
8   188   148
9   89   120
10   93   306
11   50   484
12   191   178
13   215   63
14   52   167
15   109   177
16   74   244
17   58   84
18   256   225
19   116   227
20   107   160
DEMAND_SECTION
1   0
2   67
3   25
4   27
5   59
6   77
7   71
8   15
9   19
10   17
11   65
12   84
13   63
14   90
15   7
16   59
17   30
18   25
19   99
20   57
DEPOT_SECTION
    1
    -1
EOF